p cnf 14 64
10 11 14 0
4 -8 -11 0
-8 10 -12 0
-2 -7 -13 0
-4 12 -13 0
8 -11 -12 0
5 -13 14 0
-1 2 9 0
-5 -10 -13 0
2 9 -14 0
-7 -9 -12 0
7 12 -13 0
-3 6 -11 0
7 -8 -14 0
-6 7 -8 0
-5 7 -11 0
-1 -7 14 0
2 10 11 0
-9 11 -13 0
-1 -9 10 0
1 5 6 0
5 7 10 0
6 -11 14 0
4 -11 14 0
3 -9 -14 0
-1 -3 13 0
5 6 -13 0
-3 8 -11 0
-5 8 -13 0
-3 7 10 0
7 8 9 0
-11 12 14 0
-1 -8 -9 0
1 3 -9 0
-1 -3 4 0
9 -10 14 0
-5 -7 -11 0
1 -10 -13 0
-3 8 -14 0
-11 13 14 0
9 -10 -11 0
6 10 -13 0
-1 -7 12 0
4 -11 -13 0
1 -6 -11 0
-7 8 14 0
10 -12 -14 0
4 5 -6 0
-7 10 -11 0
2 3 -12 0
4 -6 8 0
1 -7 12 0
1 4 7 0
2 3 -10 0
-5 9 14 0
2 -8 -12 0
-1 5 6 0
2 5 -9 0
-10 -11 -12 0
5 -7 14 0
-1 3 13 0
-1 3 -8 0
9 11 14 0
7 10 -13 0
